echo            both
log             ../DEM/post/log.liggghts_run

atom_style      granular
atom_modify     map array
communicate     single vel yes

# For style f, the position of the face is fixed. If an atom moves outside the face it may be lost.
boundary        f f f
newton          off
# processors      2 2 2
units           si

region          reg block 0. 0.04 0. 0.04 0. 0.2 units box
create_box      2 reg

neighbor        0.001 bin
neigh_modify    delay 0 one 10000

# **********************************************************************************************
# - define material properties required for new pair styles
hard_particles  yes
variable        YoungsPP equal 5e+10
variable        YoungsWW equal 2e+10

variable        PoissonsPP equal 0.25
variable        PoissonsWW equal 0.3

variable        CoefRestitutionPP equal 0.9
variable        CoefRestitutionPW equal 0.9
variable        CoefRestitutionWW equal 1.0

variable        CoefFrictionPP equal 0.1545
variable        CoefFrictionPW equal 0.1333
variable        CoefFrictionWW equal 0.0

variable        CoefRollingFrictionPP equal 0.045
variable        CoefRollingFrictionPW equal 0.045
variable        CoefRollingFrictionWW equal 0.0

fix             m1 all property/global youngsModulus peratomtype &
                ${YoungsPP} ${YoungsWW}

fix             m2 all property/global poissonsRatio peratomtype &
                ${PoissonsPP} ${PoissonsWW}

fix             m3 all property/global coefficientRestitution peratomtypepair &
                2 ${CoefRestitutionPP} ${CoefRestitutionPW} ${CoefRestitutionPW} ${CoefRestitutionWW}

fix             m4 all property/global coefficientFriction peratomtypepair &
                2 ${CoefFrictionPP} ${CoefFrictionPW} ${CoefFrictionPW} ${CoefFrictionWW}

fix             m5 all property/global coefficientRollingFriction peratomtypepair &
                2 ${CoefRollingFrictionPP} ${CoefRollingFrictionPW} ${CoefRollingFrictionPW} ${CoefRollingFrictionWW}

# **********************************************************************************************
# - define mesh
fix             xwalls1 all wall/gran model hertz tangential history primitive type 2 xplane 0.0
fix             xwalls2 all wall/gran model hertz tangential history primitive type 2 xplane 0.04
fix             ywalls1 all wall/gran model hertz tangential history primitive type 2 yplane 0.0
fix             ywalls2 all wall/gran model hertz tangential history primitive type 2 yplane 0.04
fix             zwalls1 all wall/gran model hertz tangential history primitive type 2 zplane 0.0
fix             zwalls2 all wall/gran model hertz tangential history primitive type 2 zplane 0.2

# pair style
pair_style      gran model hertz tangential history

# Hertzian without cohesion
pair_coeff      * *

# **********************************************************************************************
# - define timestep, gravity
timestep        0.00001
fix             gravi all gravity 9.81 vector 0.0 0.0 -1.0

# apply nve integration to all particles that are inserted as single particles
fix             integr all nve/sphere

# **********************************************************************************************
# - define variables
variable        pRho equal 2450

# **********************************************************************************************
# - coarse particles insert
create_atoms    1 single 0.02 0.02 0.02  units box
create_atoms    1 single 0.012 0.012 0.06  units box
create_atoms    1 single 0.02 0.02 0.1  units box
set             atom 1 diameter 0.0395 density ${pRho} vx 0 vy 0 vz 0
set             atom 2 diameter 0.02 density ${pRho} vx 0 vy 0 vz 0
set             atom 3 diameter 0.0395 density ${pRho} vx 0 vy 0 vz 0

# **********************************************************************************************
# - define screen output
compute         rke all erotate/sphere
thermo_style    custom step atoms ke c_rke vol
thermo          100
thermo_modify   lost ignore norm no
compute_modify  thermo_temp dynamic yes

# **********************************************************************************************
# - define dump
dump            dmp all custom 2000 ../DEM/post/dump.liggghts_run &
                id type x y z ix iy iz vx vy vz fx fy fz omegax omegay omegaz radius

run             20000

# **********************************************************************************************
# - define cfd coupling
fix           cfd1  all couple/cfd couple_every 100 mpi
fix           cfd2  all couple/cfd/force

run 1
