echo            both
log             ../DEM/log.liggghts_init
thermo_log      ../DEM/pre/thermo.txt

atom_style      granular
atom_modify     map array
communicate     single vel yes

# For style f, the position of the face is fixed. If an atom moves outside the face it may be lost.
boundary        f f f
newton          off
processors      2 2 4
units           si

region          reg block 0. 0.04 0. 0.04 0. 0.2 units box
create_box      2 reg

neighbor        0.001 bin
neigh_modify    delay 0 one 10000

# **********************************************************************************************
# - define material properties required for new pair styles
# hard_particles  yes
variable        YoungsPP equal 5e+7
variable        YoungsWW equal 2e+7

variable        PoissonsPP equal 0.25
variable        PoissonsWW equal 0.3

variable        CoefRestitutionPP equal 0.9
variable        CoefRestitutionPW equal 0.9
variable        CoefRestitutionWW equal 1.0

variable        CoefFrictionPP equal 0.1545
variable        CoefFrictionPW equal 0.1333
variable        CoefFrictionWW equal 0.0

variable        CoefRollingFrictionPP equal 0.045
variable        CoefRollingFrictionPW equal 0.045
variable        CoefRollingFrictionWW equal 0.0

fix             m1 all property/global youngsModulus peratomtype &
                ${YoungsPP} ${YoungsWW}

fix             m2 all property/global poissonsRatio peratomtype &
                ${PoissonsPP} ${PoissonsWW}

fix             m3 all property/global coefficientRestitution peratomtypepair &
                2 ${CoefRestitutionPP} ${CoefRestitutionPW} ${CoefRestitutionPW} ${CoefRestitutionWW}

fix             m4 all property/global coefficientFriction peratomtypepair &
                2 ${CoefFrictionPP} ${CoefFrictionPW} ${CoefFrictionPW} ${CoefFrictionWW}

fix             m5 all property/global coefficientRollingFriction peratomtypepair &
                2 ${CoefRollingFrictionPP} ${CoefRollingFrictionPW} ${CoefRollingFrictionPW} ${CoefRollingFrictionWW}

# **********************************************************************************************
# - define mesh
fix             xwalls1 all wall/gran model hertz tangential history primitive type 2 xplane 0.0
fix             xwalls2 all wall/gran model hertz tangential history primitive type 2 xplane 0.04
fix             ywalls1 all wall/gran model hertz tangential history primitive type 2 yplane 0.0
fix             ywalls2 all wall/gran model hertz tangential history primitive type 2 yplane 0.04
fix             zwalls1 all wall/gran model hertz tangential history primitive type 2 zplane 0.0
fix             zwalls2 all wall/gran model hertz tangential history primitive type 2 zplane 0.2

# pair style
pair_style      gran model hertz tangential history

# Hertzian without cohesion
pair_coeff      * *

# **********************************************************************************************
# - define timestep, gravity
timestep        0.00001
fix             gravi all gravity 9.81 vector 0.0 0.0 -1.0

# apply nve integration to all particles that are inserted as single particles
fix             integr all nve/sphere

# **********************************************************************************************
# - define screen output
compute         rke all erotate/sphere
thermo_style    custom step atoms ke c_rke vol
thermo          100
thermo_modify   lost ignore norm no
compute_modify  thermo_temp dynamic yes

# **********************************************************************************************
# - define dump
dump            dmp all custom 2000 ../DEM/pre/dump.liggghts_run &
                id type x y z ix iy iz vx vy vz fx fy fz omegax omegay omegaz radius

# **********************************************************************************************
# - define variables
variable        fpR1 equal 0.000515
variable        fpR2 equal 0.000565
variable        fpR3 equal 0.000615
variable        fpR4 equal 0.000665
variable        fpR5 equal 0.000715
variable        pRho equal 2450

# **********************************************************************************************
# - coarse particles insert
create_atoms    1 single 0.02 0.02 0.02  units box
create_atoms    1 single 0.012 0.012 0.06  units box
create_atoms    1 single 0.02 0.02 0.1  units box
set             atom 1 diameter 0.0395 density ${pRho} vx 0 vy 0 vz 0
set             atom 2 diameter 0.02 density ${pRho} vx 0 vy 0 vz 0
set             atom 3 diameter 0.0395 density ${pRho} vx 0 vy 0 vz 0
run             20000

# **********************************************************************************************
# - define region
region          factory block 0.001 0.039 0.001 0.039 0.1 0.18 units box

# **********************************************************************************************
# - fine particles insert
fix             pts1 all particletemplate/sphere 15485863 atom_type 1 density constant ${pRho} &
                radius constant ${fpR1}
fix             pts2 all particletemplate/sphere 15485867 atom_type 1 density constant ${pRho} &
                radius constant ${fpR2}
fix             pts3 all particletemplate/sphere 32452843 atom_type 1 density constant ${pRho} &
                radius constant ${fpR3}
fix             pts4 all particletemplate/sphere 32452867 atom_type 1 density constant ${pRho} &
                radius constant ${fpR4}
fix             pts5 all particletemplate/sphere 49979687 atom_type 1 density constant ${pRho} &
                radius constant ${fpR5}

fix             pdd all particledistribution/discrete/numberbased 67867967 &
                5 pts1 0.1 pts2 0.1 pts3 0.1 pts4 0.3 pts5 0.4

# fix             ins1 all insert/rate/region seed 86028121 distributiontemplate pdd &
#                 nparticles 15000 particlerate 30000 insert_every 100 &
#                 overlapcheck yes vel constant 0. 0. -0.2 all_in yes region factory ntry_mc 10000
# run             20000
# 
# fix             ins2 all insert/rate/region seed 86028121 distributiontemplate pdd &
#                 nparticles 15000 particlerate 300000 insert_every 100 &
#                 overlapcheck yes vel constant 0. 0. -0.1 all_in yes region factory ntry_mc 10000
# run             20000
# 
# fix             ins3 all insert/rate/region seed 86028121 distributiontemplate pdd &
#                 nparticles 7461 particlerate 100000 insert_every 100 &
#                 overlapcheck yes vel constant 0. 0. 0. all_in yes region factory ntry_mc 10000
# run             50000

# - insert for debug
fix             ins1 all insert/rate/region seed 86028121 distributiontemplate pdd &
              nparticles 1500 particlerate 30000 insert_every 100 &
              overlapcheck yes vel constant 0. 0. 0. all_in yes region factory ntry_mc 10000
run             50000

# **********************************************************************************************
# - write restart file
write_restart     ../DEM/pre/restart.liggghts_run
